34

Cu        -3.83424        3.68950       -0.00000
Cu        -1.27808        3.68950       -0.00000
Cu         1.27808        3.68950       -0.00000
Cu        -0.00000        1.47580       -0.00000
Cu        -3.83424       -0.73790       -0.00000
Cu        -1.27808       -0.73790       -0.00000
Cu        -2.55616       -2.95160       -0.00000
Cu        -2.55616        1.47580       -0.00000
Cu         3.83424        3.68950       -0.00000
Cu         1.27808       -0.73790       -0.00000
Cu         3.83424       -0.73790       -0.00000
Cu         2.55616       -2.95160       -0.00000
Cu         2.55616        1.47580       -0.00000
Cu        -0.00000       -2.95160       -0.00000
C         -1.50583       -0.47051        4.65459
C         -1.04371       -0.55859        3.18818
C         -0.47429       -1.94987        2.82508
C          0.89806       -2.23589        3.45786
C          1.92523       -1.13657        3.09380
C          1.39868        0.27021        3.36108
O          2.10499        1.15717        3.89851
C         -0.00561        0.54664        2.84315
H         -2.26557       -1.24267        4.86498
H         -0.66789       -0.61493        5.35975
H         -1.95349        0.51642        4.86310
H         -1.93192       -0.38082        2.54201
H         -1.20015       -2.73872        3.09618
H         -0.36158       -2.00396        1.71841
H          0.80544       -2.29885        4.55913
H          1.27465       -3.21684        3.11010
H          2.88677       -1.27558        3.61814
H          2.13509       -1.18988        1.99631
H         -0.33744        1.54449        3.17963
H          0.08908        0.58580        1.72871
