34
 generated by VMD
 Cu        4.323215        2.762399       -0.022985
 Cu        1.794194        3.127495        0.045620
 Cu       -0.734828        3.492591        0.114225
 Cu        0.224292        1.138173        0.380229
 Cu        3.712435       -1.581342        0.577627
 Cu        1.183413       -1.216246        0.646232
 Cu        2.142533       -3.570664        0.912236
 Cu        2.753314        0.773077        0.311624
 Cu       -3.263850        3.857687        0.182830
 Cu       -1.345609       -0.851150        0.714838
 Cu       -3.874631       -0.486053        0.783442
 Cu       -2.915509       -2.840472        1.049446
 Cu       -2.304730        1.503269        0.448834
 Cu       -0.386488       -3.205568        0.980841
 C         0.863966       -1.272067       -4.985840
 C         0.806392       -1.257239       -3.443340
 C         0.434067       -2.641319       -2.853222
 C        -1.013474       -3.045271       -3.193190
 C        -2.028440       -1.989331       -2.699407
 C        -1.654810       -0.554284       -3.046491
 O        -2.533173        0.300421       -3.322547
 C        -0.186034       -0.181775       -2.924330
 H         1.548216       -2.061024       -5.346818
 H        -0.129905       -1.455053       -5.433716
 H         1.225050       -0.303675       -5.373901
 H         1.814782       -0.986411       -3.068854
 H         1.141684       -3.407897       -3.223185
 H         0.552929       -2.603417       -1.747340
 H        -1.118047       -3.174385       -4.287340
 H        -1.252409       -4.026178       -2.741310
 H        -3.051703       -2.184594       -3.063548
 H        -2.075176       -2.032293       -1.583416
 H        -0.025429        0.798978       -3.404610
 H        -0.003372       -0.040565       -1.830372
