22
XYZ file generated by Avogadro.
C     -4.16252    4.56773    0.92334
C     -2.97479    3.66198    0.54599
O     -3.55933    5.87591    1.04060
C     -2.46491    5.76673   -2.26788
N     -3.05346    6.57172   -1.18952
C     -2.06336    4.58384   -0.28635
H     -4.07805    4.06650    3.03762
O     -3.40027    2.51112   -0.19206
C     -2.50928    6.01300    0.05509
H     -2.66622    2.23476   -0.77029
O     -2.31345    4.45029   -1.70478
C     -4.83674    4.20428    2.26264
H     -2.44122    3.35091    1.44810
H     -5.49641    5.02257    2.56359
O     -5.61407    3.01279    2.12848
H     -4.89580    4.59360    0.11091
H     -5.26861    2.34048    2.74338
H     -1.00328    4.42777   -0.06934
H     -1.69659    6.64375    0.44468
N     -3.38675    5.68661   -3.40564
H     -4.26852    5.27812   -3.10362
H     -3.00026    5.07175   -4.11827
