21
XYZ file generated by Avogadro.
C     3.78692    -4.82046    -0.83859
C     2.72017    -3.81096    -0.39784
O     3.06399    -6.07179    -0.84777
C     2.76799    -5.73835   2.42929
N     2.59578    -6.68714   1.50337
C     1.89893    -4.61119   0.63028
H     3.58123    -4.52228    -2.98970
O     3.31370    -2.63383   0.16003
C     2.11863    -6.08730   0.25170
H     2.66622    -2.23476   0.77029
O     2.44995    -4.50324   1.94964
C     4.36926    -4.52986    -2.23306
H     2.07961    -3.54669    -1.24448
H     5.10051    -5.29462    -2.50388
H     4.86869    -3.55940    -2.24166
H     4.58344    -4.87814    -0.08975
N     3.09395    -6.29046   3.32214
H     0.84101    -4.33516   0.63209
H     1.19234    -6.58433    -0.07401
H     3.37424    -5.50700   3.90867
H     3.94660    -6.74888   3.00927
